Data path: /scratch/opt/lxu/CFLG/benchmarks/Kgroup_B
Instance: K400.8.con.red
Result path: /scratch/opt/lxu/CFLG/results/Kgroup_B
Solver: Gurobi
Time limit: 7200
Formulation: LEFPAI
Cover: Small
julia --project=. src/main.jl /scratch/opt/lxu/CFLG/benchmarks/Kgroup_B K400.8.con.red /scratch/opt/lxu/CFLG/results/Kgroup_B Gurobi 7200 LEFPAI Small
The latest version of Julia in the `release` channel is 1.11.5+0.x64.linux.gnu. You currently have `1.11.4+0.x64.linux.gnu` installed. Run:

  juliaup update

in your terminal shell to install Julia 1.11.5+0.x64.linux.gnu and update the `release` channel to that version.
/scratch/opt/lxu/CFLG/benchmarks/Kgroup_B Gurobi 7200.0 /scratch/opt/lxu/CFLG/results/Kgroup_B K400.8.con.red LEFPAI Small
/scratch/opt/lxu/CFLG/benchmarks/Kgroup_B/K400.8.con.red

 read graph
data loaded


after absorb:235 235

max_piece:20
problem_graph/original graph: node: 337/235 edge: 1089/987 dlt: 0.05007875366051599 break_avg_len: 0.1815527267692536 break_max_len: 1.0Vbar/V, Ebar/E(337, 337, 1089, 1089)
Set parameter TokenServer to value "solice01.zib.de"
Set parameter Threads to value 1
Set parameter OutputFlag to value 1
Gurobi Optimizer version 12.0.1 build v12.0.1rc0 (linux64 - "Debian GNU/Linux 12 (bookworm)")

CPU model: Intel(R) Xeon(R) Gold 5122 CPU @ 3.60GHz, instruction set [SSE2|AVX|AVX2|AVX512]
Thread count: 8 physical cores, 16 logical processors, using up to 1 threads

Non-default parameters:
Threads  1

Optimize a model with 1426 rows, 3267 columns and 5445 nonzeros
Model fingerprint: 0x986405cb
Coefficient statistics:
  Matrix range     [1e+00, 1e+00]
  Objective range  [1e+00, 1e+00]
  Bounds range     [1e+00, 1e+00]
  RHS range        [0e+00, 0e+00]
Presolve removed 1426 rows and 3267 columns
Presolve time: 0.00s
Presolve: All rows and columns removed
Iteration    Objective       Primal Inf.    Dual Inf.      Time
       0   -0.0000000e+00   0.000000e+00   0.000000e+00      0s

Solved in 0 iterations and 0.00 seconds (0.00 work units)
Optimal objective -0.000000000e+00

User-callback calls 35, time in user-callback 0.00 sec
elapsed CPU time: 1.525553 seconds
Set parameter TokenServer to value "solice01.zib.de"
Set parameter Threads to value 1
Set parameter OutputFlag to value 1
Set parameter MIPGap to value 0.0001
Set parameter MIPGapAbs to value 0.999998
Set parameter TimeLimit to value 7198.474447

 more cuts: false 0.05007875366051599 false
is_attach:trueformulation:LEFPAI0 1089 0

 model loaded

Gurobi Optimizer version 12.0.1 build v12.0.1rc0 (linux64 - "Debian GNU/Linux 12 (bookworm)")

CPU model: Intel(R) Xeon(R) Gold 5122 CPU @ 3.60GHz, instruction set [SSE2|AVX|AVX2|AVX512]
Thread count: 8 physical cores, 16 logical processors, using up to 1 threads

Non-default parameters:
TimeLimit  7198.474447
MIPGapAbs  0.999998
Threads  1

Optimize a model with 9889 rows, 10541 columns and 25726 nonzeros
Model fingerprint: 0x5f49b165
Model has 5511 simple general constraints
  5511 INDICATOR
Variable types: 2515 continuous, 8026 integer (8026 binary)
Coefficient statistics:
  Matrix range     [7e-05, 1e+00]
  Objective range  [1e+00, 1e+00]
  Bounds range     [7e-05, 1e+00]
  RHS range        [7e-05, 1e+00]
  GenCon rhs range [5e-08, 1e+00]
  GenCon coe range [1e+00, 1e+00]
Presolve removed 9889 rows and 10541 columns
Presolve time: 0.10s
Presolve: All rows and columns removed

Explored 0 nodes (0 simplex iterations) in 0.10 seconds (0.08 work units)
Thread count was 1 (of 16 available processors)

Solution count 1: 860 

Optimal solution found (tolerance 1.00e-04)
Warning: max constraint violation (1.0000e-06) exceeds tolerance
Warning: max general constraint violation (1.0000e-06) exceeds tolerance
Best objective 8.600000000000e+02, best bound 8.600000000000e+02, gap 0.0000%

User-callback calls 2135, time in user-callback 0.00 sec

 sepatime0 0 0
860.0Stat(MathOptInterface.OPTIMAL, 860.0, 860.0, 0.0, 0.0, 1.525553, 0.10508108139038086, 0, Main.CFLG.LEFPAI, "", #undef)
